(set-logic QF_NRA)
(declare-fun skoX7 () Real)
(declare-fun skoX6 () Real)
(declare-fun skoX5 () Real)
(declare-fun skoX8 () Real)
(declare-fun skoX3 () Real)
(declare-fun skoX1 () Real)
(declare-fun skoX2 () Real)
(declare-fun skoX4 () Real)
(assert (not (<= (+ (* (- 30000000) (* skoX5 skoX5 skoX8 skoX4)) (* 10000000 (* skoX8 skoX8 skoX8 skoX4)) (* (- 30000000) (* skoX5 skoX8 skoX8 skoX2)) (* 10000000 (* skoX5 skoX5 skoX5 skoX2)) (* 10000000 (* skoX6 skoX6 skoX6 skoX1)) (* (- 30000000) (* skoX7 skoX6 skoX6 skoX3)) (* (- 30000000) (* skoX7 skoX7 skoX6 skoX1)) (* 10000000 (* skoX7 skoX7 skoX7 skoX3))) 7871547)))
(set-info :status sat)
(check-sat)
